 O  C 
 1.0000000000000000
    10.0000000000000000    0.0000000000000000    0.0000000000000000
     0.0000000000000000   10.0000000000000000    0.0000000000000000
     0.0000000000000000    0.0000000000000000   10.0000000000000000
   2   1
Cartesian
  4.0000000000000000  5.0000000000000000  5.0000000000000000
  6.0000000000000000  5.0000000000000000  5.0000000000000000
  5.0000000000000000  5.0000000000000000  5.0000000000000000
